c nIsolatedPIs 0
c maxPI 32
p cnf 236 613
c gate 33 -11 -27 0
-11 -33 0
-27 -33 0
11 27 33 0
c gate 34 11 27 0
11 -34 0
27 -34 0
-11 -27 34 0
c gate 35 -33 -34 0
-33 -35 0
-34 -35 0
33 34 35 0
c gate 36 -10 26 0
-10 -36 0
26 -36 0
10 -26 36 0
c gate 37 -9 25 0
-9 -37 0
25 -37 0
9 -25 37 0
c gate 38 8 -24 0
8 -38 0
-24 -38 0
-8 24 38 0
c gate 39 9 -25 0
9 -39 0
-25 -39 0
-9 25 39 0
c gate 40 -38 -39 0
-38 -40 0
-39 -40 0
38 39 40 0
c gate 41 8 24 0
8 -41 0
24 -41 0
-8 -24 41 0
c gate 42 -8 -24 0
-8 -42 0
-24 -42 0
8 24 42 0
c gate 43 -41 -42 0
-41 -43 0
-42 -43 0
41 42 43 0
c gate 44 6 -22 0
6 -44 0
-22 -44 0
-6 22 44 0
c gate 45 -2 18 0
-2 -45 0
18 -45 0
2 -18 45 0
c gate 46 -1 17 0
-1 -46 0
17 -46 0
1 -17 46 0
c gate 47 -45 -46 0
-45 -47 0
-46 -47 0
45 46 47 0
c gate 48 2 -18 0
2 -48 0
-18 -48 0
-2 18 48 0
c gate 49 3 -19 0
3 -49 0
-19 -49 0
-3 19 49 0
c gate 50 -48 -49 0
-48 -50 0
-49 -50 0
48 49 50 0
c gate 51 -47 50 0
-47 -51 0
50 -51 0
47 -50 51 0
c gate 52 -4 20 0
-4 -52 0
20 -52 0
4 -20 52 0
c gate 53 -3 19 0
-3 -53 0
19 -53 0
3 -19 53 0
c gate 54 -52 -53 0
-52 -54 0
-53 -54 0
52 53 54 0
c gate 55 -51 54 0
-51 -55 0
54 -55 0
51 -54 55 0
c gate 56 5 -21 0
5 -56 0
-21 -56 0
-5 21 56 0
c gate 57 4 -20 0
4 -57 0
-20 -57 0
-4 20 57 0
c gate 58 -56 -57 0
-56 -58 0
-57 -58 0
56 57 58 0
c gate 59 -55 58 0
-55 -59 0
58 -59 0
55 -58 59 0
c gate 60 -5 21 0
-5 -60 0
21 -60 0
5 -21 60 0
c gate 61 -6 -22 0
-6 -61 0
-22 -61 0
6 22 61 0
c gate 62 6 22 0
6 -62 0
22 -62 0
-6 -22 62 0
c gate 63 -61 -62 0
-61 -63 0
-62 -63 0
61 62 63 0
c gate 64 -60 -63 0
-60 -64 0
-63 -64 0
60 63 64 0
c gate 65 -59 64 0
-59 -65 0
64 -65 0
59 -64 65 0
c gate 66 -44 -65 0
-44 -66 0
-65 -66 0
44 65 66 0
c gate 67 -7 -23 0
-7 -67 0
-23 -67 0
7 23 67 0
c gate 68 7 23 0
7 -68 0
23 -68 0
-7 -23 68 0
c gate 69 -67 -68 0
-67 -69 0
-68 -69 0
67 68 69 0
c gate 70 -66 -69 0
-66 -70 0
-69 -70 0
66 69 70 0
c gate 71 7 -23 0
7 -71 0
-23 -71 0
-7 23 71 0
c gate 72 -43 71 0
-43 -72 0
71 -72 0
43 -71 72 0
c gate 73 -70 -72 0
-70 -73 0
-72 -73 0
70 72 73 0
c gate 74 -43 -73 0
-43 -74 0
-73 -74 0
43 73 74 0
c gate 75 40 -74 0
40 -75 0
-74 -75 0
-40 74 75 0
c gate 76 -37 -75 0
-37 -76 0
-75 -76 0
37 75 76 0
c gate 77 10 -26 0
10 -77 0
-26 -77 0
-10 26 77 0
c gate 78 -36 -77 0
-36 -78 0
-77 -78 0
36 77 78 0
c gate 79 -76 78 0
-76 -79 0
78 -79 0
76 -78 79 0
c gate 80 -36 -79 0
-36 -80 0
-79 -80 0
36 79 80 0
c gate 81 -35 -80 0
-35 -81 0
-80 -81 0
35 80 81 0
c gate 82 -13 -29 0
-13 -82 0
-29 -82 0
13 29 82 0
c gate 83 13 29 0
13 -83 0
29 -83 0
-13 -29 83 0
c gate 84 -82 -83 0
-82 -84 0
-83 -84 0
82 83 84 0
c gate 85 -14 -30 0
-14 -85 0
-30 -85 0
14 30 85 0
c gate 86 14 30 0
14 -86 0
30 -86 0
-14 -30 86 0
c gate 87 -85 -86 0
-85 -87 0
-86 -87 0
85 86 87 0
c gate 88 -84 -87 0
-84 -88 0
-87 -88 0
84 87 88 0
c gate 89 12 28 0
12 -89 0
28 -89 0
-12 -28 89 0
c gate 90 -12 -28 0
-12 -90 0
-28 -90 0
12 28 90 0
c gate 91 -89 -90 0
-89 -91 0
-90 -91 0
89 90 91 0
c gate 92 -15 -31 0
-15 -92 0
-31 -92 0
15 31 92 0
c gate 93 15 31 0
15 -93 0
31 -93 0
-15 -31 93 0
c gate 94 -92 -93 0
-92 -94 0
-93 -94 0
92 93 94 0
c gate 95 -16 -32 0
-16 -95 0
-32 -95 0
16 32 95 0
c gate 96 16 32 0
16 -96 0
32 -96 0
-16 -32 96 0
c gate 97 -95 -96 0
-95 -97 0
-96 -97 0
95 96 97 0
c gate 98 -94 -97 0
-94 -98 0
-97 -98 0
94 97 98 0
c gate 99 -91 98 0
-91 -99 0
98 -99 0
91 -98 99 0
c gate 100 88 99 0
88 -100 0
99 -100 0
-88 -99 100 0
c gate 101 81 100 0
81 -101 0
100 -101 0
-81 -100 101 0
c gate 102 -40 78 0
-40 -102 0
78 -102 0
40 -78 102 0
c gate 103 -77 -102 0
-77 -103 0
-102 -103 0
77 102 103 0
c gate 104 35 -103 0
35 -104 0
-103 -104 0
-35 103 104 0
c gate 105 35 80 0
35 -105 0
80 -105 0
-35 -80 105 0
c gate 106 -81 -105 0
-81 -106 0
-105 -106 0
81 105 106 0
c gate 107 -104 -106 0
-104 -107 0
-106 -107 0
104 106 107 0
c gate 108 40 -78 0
40 -108 0
-78 -108 0
-40 78 108 0
c gate 109 -102 -108 0
-102 -109 0
-108 -109 0
102 108 109 0
c gate 110 76 -78 0
76 -110 0
-78 -110 0
-76 78 110 0
c gate 111 -79 -110 0
-79 -111 0
-110 -111 0
79 110 111 0
c gate 112 -109 -111 0
-109 -112 0
-111 -112 0
109 111 112 0
c gate 113 109 111 0
109 -113 0
111 -113 0
-109 -111 113 0
c gate 114 65 69 0
65 -114 0
69 -114 0
-65 -69 114 0
c gate 115 -70 -114 0
-70 -115 0
-114 -115 0
70 114 115 0
c gate 116 -10 -26 0
-10 -116 0
-26 -116 0
10 26 116 0
c gate 117 10 26 0
10 -117 0
26 -117 0
-10 -26 117 0
c gate 118 9 25 0
9 -118 0
25 -118 0
-9 -25 118 0
c gate 119 -117 -118 0
-117 -119 0
-118 -119 0
117 118 119 0
c gate 120 4 20 0
4 -120 0
20 -120 0
-4 -20 120 0
c gate 121 2 18 0
2 -121 0
18 -121 0
-2 -18 121 0
c gate 122 1 17 0
1 -122 0
17 -122 0
-1 -17 122 0
c gate 123 3 19 0
3 -123 0
19 -123 0
-3 -19 123 0
c gate 124 -122 -123 0
-122 -124 0
-123 -124 0
122 123 124 0
c gate 125 -121 124 0
-121 -125 0
124 -125 0
121 -124 125 0
c gate 126 -52 -57 0
-52 -126 0
-57 -126 0
52 57 126 0
c gate 127 -3 -19 0
-3 -127 0
-19 -127 0
3 19 127 0
c gate 128 -126 -127 0
-126 -128 0
-127 -128 0
126 127 128 0
c gate 129 -125 128 0
-125 -129 0
128 -129 0
125 -128 129 0
c gate 130 -120 -129 0
-120 -130 0
-129 -130 0
120 129 130 0
c gate 131 -56 -60 0
-56 -131 0
-60 -131 0
56 60 131 0
c gate 132 -130 -131 0
-130 -132 0
-131 -132 0
130 131 132 0
c gate 133 -45 122 0
-45 -133 0
122 -133 0
45 -122 133 0
c gate 134 -2 133 0
-2 -134 0
133 -134 0
2 -133 134 0
c gate 135 -123 134 0
-123 -135 0
134 -135 0
123 -134 135 0
c gate 136 129 135 0
129 -136 0
135 -136 0
-129 -135 136 0
c gate 137 132 -136 0
132 -137 0
-136 -137 0
-132 136 137 0
c gate 138 5 21 0
5 -138 0
21 -138 0
-5 -21 138 0
c gate 139 63 -138 0
63 -139 0
-138 -139 0
-63 138 139 0
c gate 140 -137 139 0
-137 -140 0
139 -140 0
137 -139 140 0
c gate 141 -61 -140 0
-61 -141 0
-140 -141 0
61 140 141 0
c gate 142 69 -141 0
69 -142 0
-141 -142 0
-69 141 142 0
c gate 143 43 142 0
43 -143 0
142 -143 0
-43 -142 143 0
c gate 144 -41 67 0
-41 -144 0
67 -144 0
41 -67 144 0
c gate 145 -9 -25 0
-9 -145 0
-25 -145 0
9 25 145 0
c gate 146 -42 -145 0
-42 -146 0
-145 -146 0
42 145 146 0
c gate 147 -144 146 0
-144 -147 0
146 -147 0
144 -146 147 0
c gate 148 -143 147 0
-143 -148 0
147 -148 0
143 -147 148 0
c gate 149 119 -148 0
119 -149 0
-148 -149 0
-119 148 149 0
c gate 150 -116 -149 0
-116 -150 0
-149 -150 0
116 149 150 0
c gate 151 -34 -150 0
-34 -151 0
-150 -151 0
34 150 151 0
c gate 152 -33 -151 0
-33 -152 0
-151 -152 0
33 151 152 0
c gate 153 -89 -152 0
-89 -153 0
-152 -153 0
89 152 153 0
c gate 154 -90 -153 0
-90 -154 0
-153 -154 0
90 153 154 0
c gate 155 -83 -154 0
-83 -155 0
-154 -155 0
83 154 155 0
c gate 156 -82 -155 0
-82 -156 0
-155 -156 0
82 155 156 0
c gate 157 87 -156 0
87 -157 0
-156 -157 0
-87 156 157 0
c gate 158 -85 -157 0
-85 -158 0
-157 -158 0
85 157 158 0
c gate 159 94 -158 0
94 -159 0
-158 -159 0
-94 158 159 0
c gate 160 -92 -159 0
-92 -160 0
-159 -160 0
92 159 160 0
c gate 161 97 -160 0
97 -161 0
-160 -161 0
-97 160 161 0
c gate 162 -97 160 0
-97 -162 0
160 -162 0
97 -160 162 0
c gate 163 -161 -162 0
-161 -163 0
-162 -163 0
161 162 163 0
c gate 164 -83 -89 0
-83 -164 0
-89 -164 0
83 89 164 0
c gate 165 87 -164 0
87 -165 0
-164 -165 0
-87 164 165 0
c gate 166 -86 -165 0
-86 -166 0
-165 -166 0
86 165 166 0
c gate 167 -93 166 0
-93 -167 0
166 -167 0
93 -166 167 0
c gate 168 -97 167 0
-97 -168 0
167 -168 0
97 -167 168 0
c gate 169 97 -167 0
97 -169 0
-167 -169 0
-97 167 169 0
c gate 170 -168 -169 0
-168 -170 0
-169 -170 0
168 169 170 0
c gate 171 163 170 0
163 -171 0
170 -171 0
-163 -170 171 0
c gate 172 -163 -170 0
-163 -172 0
-170 -172 0
163 170 172 0
c gate 173 -171 -172 0
-171 -173 0
-172 -173 0
171 172 173 0
c gate 174 97 -173 0
97 -174 0
-173 -174 0
-97 173 174 0
c gate 175 115 -174 0
115 -175 0
-174 -175 0
-115 174 175 0
c gate 176 -140 -142 0
-140 -176 0
-142 -176 0
140 142 176 0
c gate 177 121 122 0
121 -177 0
122 -177 0
-121 -122 177 0
c gate 178 176 177 0
176 -178 0
177 -178 0
-176 -177 178 0
c gate 179 -143 -178 0
-143 -179 0
-178 -179 0
143 178 179 0
c gate 180 -94 158 0
-94 -180 0
158 -180 0
94 -158 180 0
c gate 181 -159 -180 0
-159 -181 0
-180 -181 0
159 180 181 0
c gate 182 94 -166 0
94 -182 0
-166 -182 0
-94 166 182 0
c gate 183 -94 166 0
-94 -183 0
166 -183 0
94 -166 183 0
c gate 184 -182 -183 0
-182 -184 0
-183 -184 0
182 183 184 0
c gate 185 -181 -184 0
-181 -185 0
-184 -185 0
181 184 185 0
c gate 186 181 184 0
181 -186 0
184 -186 0
-181 -184 186 0
c gate 187 84 89 0
84 -187 0
89 -187 0
-84 -89 187 0
c gate 188 154 -187 0
154 -188 0
-187 -188 0
-154 187 188 0
c gate 189 -186 -188 0
-186 -189 0
-188 -189 0
186 188 189 0
c gate 190 -185 189 0
-185 -190 0
189 -190 0
185 -189 190 0
c gate 191 173 190 0
173 -191 0
190 -191 0
-173 -190 191 0
c gate 192 179 191 0
179 -192 0
191 -192 0
-179 -191 192 0
c gate 193 119 -147 0
119 -193 0
-147 -193 0
-119 147 193 0
c gate 194 -33 -116 0
-33 -194 0
-116 -194 0
33 116 194 0
c gate 195 91 194 0
91 -195 0
194 -195 0
-91 -194 195 0
c gate 196 -193 195 0
-193 -196 0
195 -196 0
193 -195 196 0
c gate 197 -152 196 0
-152 -197 0
196 -197 0
152 -196 197 0
c gate 198 143 -197 0
143 -198 0
-197 -198 0
-143 197 198 0
c gate 199 191 -198 0
191 -199 0
-198 -199 0
-191 198 199 0
c gate 200 -87 164 0
-87 -200 0
164 -200 0
87 -164 200 0
c gate 201 -165 -200 0
-165 -201 0
-200 -201 0
165 200 201 0
c gate 202 -87 156 0
-87 -202 0
156 -202 0
87 -156 202 0
c gate 203 -157 -202 0
-157 -203 0
-202 -203 0
157 202 203 0
c gate 204 201 203 0
201 -204 0
203 -204 0
-201 -203 204 0
c gate 205 -84 154 0
-84 -205 0
154 -205 0
84 -154 205 0
c gate 206 -204 205 0
-204 -206 0
205 -206 0
204 -205 206 0
c gate 207 -201 -203 0
-201 -207 0
-203 -207 0
201 203 207 0
c gate 208 -206 -207 0
-206 -208 0
-207 -208 0
206 207 208 0
c gate 209 -185 208 0
-185 -209 0
208 -209 0
185 -208 209 0
c gate 210 -186 -209 0
-186 -210 0
-209 -210 0
186 209 210 0
c gate 211 -171 210 0
-171 -211 0
210 -211 0
171 -210 211 0
c gate 212 -172 -211 0
-172 -212 0
-211 -212 0
172 211 212 0
c gate 213 -199 212 0
-199 -213 0
212 -213 0
199 -212 213 0
c gate 214 -192 -213 0
-192 -214 0
-213 -214 0
192 213 214 0
c gate 215 175 -214 0
175 -215 0
-214 -215 0
-175 214 215 0
c gate 216 115 -167 0
115 -216 0
-167 -216 0
-115 167 216 0
c gate 217 161 216 0
161 -217 0
216 -217 0
-161 -216 217 0
c gate 218 -114 -217 0
-114 -218 0
-217 -218 0
114 217 218 0
c gate 219 -175 218 0
-175 -219 0
218 -219 0
175 -218 219 0
c gate 220 -215 -219 0
-215 -220 0
-219 -220 0
215 219 220 0
c gate 221 -70 -220 0
-70 -221 0
-220 -221 0
70 220 221 0
c gate 222 -74 -221 0
-74 -222 0
-221 -222 0
74 221 222 0
c gate 223 -37 -39 0
-37 -223 0
-39 -223 0
37 39 223 0
c gate 224 74 -223 0
74 -224 0
-223 -224 0
-74 223 224 0
c gate 225 -222 -224 0
-222 -225 0
-224 -225 0
222 224 225 0
c gate 226 -113 -225 0
-113 -226 0
-225 -226 0
113 225 226 0
c gate 227 -112 -226 0
-112 -227 0
-226 -227 0
112 226 227 0
c gate 228 -107 227 0
-107 -228 0
227 -228 0
107 -227 228 0
c gate 229 -80 104 0
-80 -229 0
104 -229 0
80 -104 229 0
c gate 230 -81 -229 0
-81 -230 0
-229 -230 0
81 229 230 0
c gate 231 -228 230 0
-228 -231 0
230 -231 0
228 -230 231 0
c gate 232 -101 -231 0
-101 -232 0
-231 -232 0
101 231 232 0
c gate 233 2 -232 0
2 -233 0
-232 -233 0
-2 232 233 0
c gate 234 -18 232 0
-18 -234 0
232 -234 0
18 -232 234 0
c gate 235 133 -234 0
133 -235 0
-234 -235 0
-133 234 235 0
c gate 236 -233 235 0
-233 -236 0
235 -236 0
233 -235 236 0
c PO
236 0
